HFSDDW
15	9	3
0	33	1	35	2	13
0	99	1	77	2	1
0	7	1	50	2	86
0	42	1	1	2	47
0	33	1	15	2	77
0	58	1	57	2	2
0	40	1	64	2	44
0	69	1	10	2	10
0	17	1	71	2	34
0	74	1	82	2	36
0	33	1	84	2	12
0	97	1	52	2	5
0	85	1	2	2	4
0	42	1	84	2	84
0	71	1	21	2	90
LBCmax: 292
RELDUE
-1	24	7	3
-1	233	7	5
-1	25	1	2
-1	263	4	4
-1	171	6	7
-1	254	7	6
-1	9	9	9
-1	0	8	6
-1	0	9	8
-1	107	2	9
-1	157	8	2
-1	45	7	2
-1	0	4	2
-1	212	8	1
-1	0	5	8
DDW
22	26
212	254
24	26
237	289
157	185
239	269
9	9
0	0
0	0
98	116
143	171
42	48
0	0
206	218
0	0
